# Solution for model GasLib-40
# Objective value = 48.9701648375473
loadshed[innode_1] 0
loadshed[innode_2] 0
loadshed[innode_3] 0
loadshed[innode_4] 0
loadshed[innode_5] 0
loadshed[innode_6] 0
loadshed[innode_7] 0
loadshed[innode_8] 0
loadshed[source_1] -1.7657524969031657e-01
loadshed[source_2] 1.8854898691475752e-01
loadshed[source_3] 2.9778702432194748e-01
loadshed[sink_1] 1.0751393834617051e-01
loadshed[sink_2] 0
loadshed[sink_3] 0
loadshed[sink_4] 0
loadshed[sink_5] 0
loadshed[sink_6] 0
loadshed[sink_7] 0
loadshed[sink_8] 0
loadshed[sink_9] 0
loadshed[sink_10] 0
loadshed[sink_11] 0
loadshed[sink_12] 1
loadshed[sink_13] 0
loadshed[sink_14] 0
loadshed[sink_15] 0
loadshed[sink_16] 0
loadshed[sink_17] 0
loadshed[sink_18] 0
loadshed[sink_19] 0
loadshed[sink_20] 0
loadshed[sink_21] 1
loadshed[sink_22] 0
loadshed[sink_23] 0
loadshed[sink_24] 8.8684008993697672e-01
loadshed[sink_25] 0
loadshed[sink_26] 0
loadshed[sink_27] 0
loadshed[sink_28] 0
loadshed[sink_29] 0
flow[source_1,sink_3] 1.8600510805000039e+02
flow[innode_1,sink_16] 1.6354166666666970e+01
flow[innode_6,sink_13] 3.4661222825637523e+00
flow[sink_13,sink_14] -1.2888044384102916e+01
flow[sink_14,sink_10] -2.9242211050769583e+01
flow[sink_25,sink_26] 0
flow[sink_26,sink_9] 6.6325136609155237e+01
flow[sink_9,sink_18] 4.9970969942488566e+01
flow[sink_26,sink_4] -82.6793032758219
flow[sink_4,sink_20] -1.0274759999544575e+02
flow[sink_18,sink_6] 3.3616803275821894e+01
flow[sink_25,innode_8] -1.5329677471666403e+02
flow[sink_6,sink_7] -1.3687395857475082e+01
flow[sink_6,sink_22] 3.0950032466630340e+01
flow[sink_7,sink_24] 1.8506360291556940e+00
flow[sink_22,sink_1] 1.4595865799963672e+01
flow[sink_24,sink_21] 0
flow[sink_21,sink_12] 0
flow[sink_7,sink_5] -3.1892198553297437e+01
flow[sink_5,sink_17] -4.8246365219964105e+01
flow[sink_17,sink_4] -3.71413005295714
flow[sink_17,sink_8] -6.0886401833673617e+01
flow[sink_3,sink_23] 16.3541666666697
flow[sink_8,sink_20] -7.7240568500340288e+01
flow[sink_25,sink_20] 1.9634233516245271e+02
flow[sink_25,sink_15] -6.2865849395019566e+01
flow[sink_15,sink_29] -9.5574182728370488e+01
flow[sink_29,sink_28] 1.6354166666667879e+01
flow[sink_29,sink_2] 0
flow[sink_2,sink_15] -1.6354166666684250e+01
flow[sink_29,innode_7] -1.2828251606170517e+02
flow[innode_4,sink_19] 0
flow[sink_19,innode_3] 3.8212368468770052e+01
flow[innode_4,innode_5] 1.1101304438410322e+02
flow[sink_27,innode_5] -1.1101304438410322e+02
flow[sink_27,sink_19] 9.4658877717436553e+01
flow[sink_10,sink_11] 3.2708333333333641e+01
flow[sink_10,innode_2] -4.0092342581999837e+01
flow[sink_10,innode_3] -3.8212368468770052e+01
flow[innode_6,sink_25] -3.4661222825637523e+00
flow[sink_11,innode_1] 1.6354166666666970e+01
flow[sink_19,innode_2] 4.0092342581999837e+01
flow[source_3,innode_4] 1.1101304438410322e+02
flow[source_2,innode_7] 1.2828251606170517e+02
flow[sink_3,innode_8] 1.5329677471666403e+02
pressure[innode_1] 7.5712577978558059e+01
pressure[innode_2] 7.7983325178418326e+01
pressure[innode_3] 7.7898708215525559e+01
pressure[innode_4] 81.01325
pressure[innode_5] 8.0936889374336658e+01
pressure[innode_6] 74.4772076634508
pressure[innode_7] 81.01325
pressure[innode_8] 8.0391505980315642e+01
pressure[source_1] 81.01325
pressure[source_2] 81.01325
pressure[source_3] 81.01325
pressure[sink_1] 1.0132500000000002e+00
pressure[sink_2] 74.7287755411065
pressure[sink_3] 8.0391505980315642e+01
pressure[sink_4] 2.0131753619129160e+01
pressure[sink_5] 1.6395806341327336e+01
pressure[sink_6] 2.9441950410626361e+00
pressure[sink_7] 3.1320903603720045e+00
pressure[sink_8] 2.2287213935637219e+01
pressure[sink_9] 5.6499624105283051e+00
pressure[sink_10] 75.8642792861616
pressure[sink_11] 7.5712577978558059e+01
pressure[sink_12] 1.01325
pressure[sink_13] 7.4458099510549872e+01
pressure[sink_14] 7.4481163763793859e+01
pressure[sink_15] 7.4782168290872946e+01
pressure[sink_16] 7.4690928143740379e+01
pressure[sink_17] 1.9989811815470418e+01
pressure[sink_18] 3.8418637789039831e+00
pressure[sink_19] 7.7983325178418326e+01
pressure[sink_20] 2.7669795305060706e+01
pressure[sink_21] 1.01325
pressure[sink_22] 1.9626491323692776e+00
pressure[sink_23] 8.0226787968655856e+01
pressure[sink_24] 1.01325
pressure[sink_25] 74.4772076634508
pressure[sink_26] 9.61969301705169
pressure[sink_27] 8.0015686235998217e+01
pressure[sink_28] 77.2869129679115
pressure[sink_29] 7.7582195241528680e+01
interdiction[source_1,sink_3] 0
interdiction[innode_1,sink_16] 0
interdiction[innode_6,sink_13] 0
interdiction[sink_13,sink_14] 0
interdiction[sink_14,sink_10] 0
interdiction[sink_25,sink_26] 1
interdiction[sink_26,sink_9] 0
interdiction[sink_9,sink_18] 0
interdiction[sink_26,sink_4] 0
interdiction[sink_4,sink_20] 0
interdiction[sink_18,sink_6] 0
interdiction[sink_25,innode_8] 0
interdiction[sink_6,sink_7] 0
interdiction[sink_6,sink_22] 0
interdiction[sink_7,sink_24] 0
interdiction[sink_22,sink_1] 0
interdiction[sink_24,sink_21] 0
interdiction[sink_21,sink_12] 0
interdiction[sink_7,sink_5] 0
interdiction[sink_5,sink_17] 0
interdiction[sink_17,sink_4] 0
interdiction[sink_17,sink_8] 0
interdiction[sink_3,sink_23] 0
interdiction[sink_8,sink_20] 0
interdiction[sink_25,sink_20] 0
interdiction[sink_25,sink_15] 0
interdiction[sink_15,sink_29] 0
interdiction[sink_29,sink_28] 0
interdiction[sink_29,sink_2] 1
interdiction[sink_2,sink_15] 0
interdiction[sink_29,innode_7] 0
interdiction[innode_4,sink_19] 1
interdiction[sink_19,innode_3] 0
interdiction[innode_4,innode_5] 0
interdiction[sink_27,innode_5] 0
interdiction[sink_27,sink_19] 0
interdiction[sink_10,sink_11] 0
interdiction[sink_10,innode_2] 0
interdiction[sink_10,innode_3] 0
interdiction[innode_6,sink_25] 0
interdiction[sink_11,innode_1] 0
interdiction[sink_19,innode_2] 0
interdiction[source_3,innode_4] 0
interdiction[source_2,innode_7] 0
interdiction[sink_3,innode_8] 0
WCcheckFlow[source_1,sink_3] 39
WCcheckFlow[innode_1,sink_16] 1
WCcheckFlow[innode_6,sink_13] 13
WCcheckFlow[sink_13,sink_14] 12
WCcheckFlow[sink_14,sink_10] 11
WCcheckFlow[sink_25,sink_26] 0
WCcheckFlow[sink_26,sink_9] 12
WCcheckFlow[sink_9,sink_18] 11
WCcheckFlow[sink_26,sink_4] -13
WCcheckFlow[sink_4,sink_20] -14
WCcheckFlow[sink_18,sink_6] 10
WCcheckFlow[sink_25,innode_8] -36
WCcheckFlow[sink_6,sink_7] 7
WCcheckFlow[sink_6,sink_22] 2
WCcheckFlow[sink_7,sink_24] 3
WCcheckFlow[sink_22,sink_1] 1
WCcheckFlow[sink_24,sink_21] 2
WCcheckFlow[sink_21,sink_12] 1
WCcheckFlow[sink_7,sink_5] 3
WCcheckFlow[sink_5,sink_17] 2
WCcheckFlow[sink_17,sink_4] 0
WCcheckFlow[sink_17,sink_8] 1
WCcheckFlow[sink_3,sink_23] 1
WCcheckFlow[sink_8,sink_20] 0
WCcheckFlow[sink_25,sink_20] 15
WCcheckFlow[sink_25,sink_15] 6
WCcheckFlow[sink_15,sink_29] 4
WCcheckFlow[sink_29,sink_28] 1
WCcheckFlow[sink_29,sink_2] 0
WCcheckFlow[sink_2,sink_15] -1
WCcheckFlow[sink_29,innode_7] 2
WCcheckFlow[innode_4,sink_19] 0
WCcheckFlow[sink_19,innode_3] -5
WCcheckFlow[innode_4,innode_5] -2
WCcheckFlow[sink_27,innode_5] 3
WCcheckFlow[sink_27,sink_19] -4
WCcheckFlow[sink_10,sink_11] 3
WCcheckFlow[sink_10,innode_2] 1
WCcheckFlow[sink_10,innode_3] 6
WCcheckFlow[innode_6,sink_25] -14
WCcheckFlow[sink_11,innode_1] 2
WCcheckFlow[sink_19,innode_2] 0
WCcheckFlow[source_3,innode_4] -1
WCcheckFlow[source_2,innode_7] -1
WCcheckFlow[sink_3,innode_8] 37
